data;

param num_top:=6;

#nodes and edges of the physical network
param n := 10;

set E := (1,2) (1,3) (1,7) (2,4) (2,7) (3,5) (4,8) (5,6) (5,7) (6,7) (6,9) (7,8) (7,9) (8,10) (9,10) ;

#nodes and edges of the virtual networks
set Nl[1] := 4 6 2 10 9 ;
set Nl[2] := 2 10 3 5 7 ;
set Nl[3] := 1 7 9 3 4 ;
set Nl[4] := 1 3 10 2 7 ;
set Nl[5] := 7 2 8 3 10 ;
set Nl[6] := 1 10 7 6 5 ;

set El[1] := (4,6) (2,6) (2,10) (9,10) (4,9) (6,10) (2,9) (6,9) (2,4) (4,10) ;
set El[2] := (2,10) (3,10) (3,5) (5,7) (2,7) (5,10) (3,7) (2,3) (2,5) (7,10) ;
set El[3] := (1,7) (7,9) (3,9) (3,4) (1,4) (3,7) (4,7) (1,3) (4,9) (1,9) ;
set El[4] := (1,3) (3,10) (2,10) (2,7) (1,7) (1,10) (2,3) (7,10) (3,7) (1,2) ;
set El[5] := (2,7) (2,8) (3,8) (3,10) (7,10) (3,7) (2,3) (2,10) (7,8) (8,10) ;
set El[6] := (1,10) (7,10) (6,7) (5,6) (1,5) (5,10) (1,7) (1,6) (5,7) (6,10) ;
